16,2	0,0	5,4	17,5	0,0	0,0	0,0	0,0	0,0	18,2
5,6	5,1	0,0	9,7	19,9	0,0	0,0	18,3	0,0	0,0
0,0	0,0	9,1	0,0	10,2	16,2	0,0	0,0	5,8	0,0
7,7	0,0	7,8	0,0	0,0	0,0	17,2	0,0	0,0	0,0
0,0	8,2	0,0	6,2	19,3	0,0	0,0	16,6	0,0	0,0
0,0	13,5	17,8	0,0	19,7	19,7	0,0	0,0	8,1	0,0
0,0	12,6	0,0	11,0	0,0	0,0	15,8	0,0	0,0	5,6
18,3	0,0	16,2	0,0	0,0	0,0	0,0	0,0	0,0	9,2
0,0	6,9	0,0	15,4	12,0	0,0	0,0	10,3	0,0	0,0
0,0	0,0	9,0	0,0	0,0	11,3	17,5	0,0	0,0	16,6
									
2,6	3,5	3,0	4,9	4,5	5,0	4,6	3,5	4,9	5,0
